tsp_instances/TSP50/instance8.tsp
NODE_COORD_SECTION
0 67 168
1 42 188
2 196 59
3 122 81
4 7 130
5 116 115
6 5 72
7 80 194
8 60 167
9 112 185
10 47 87
11 29 96
12 0 185
13 188 7
14 147 186
15 164 21
16 169 26
17 72 150
18 42 155
19 34 196
20 90 16
21 113 143
22 112 38
23 17 141
24 147 108
25 112 125
26 123 10
27 162 117
28 175 161
29 25 105
30 23 153
31 104 135
32 26 40
33 85 31
34 117 111
35 23 22
36 21 79
37 147 139
38 136 192
39 133 124
40 110 152
41 151 1
42 132 177
43 34 73
44 22 121
45 87 40
46 63 188
47 90 77
48 108 147
49 12 167
