tsp_instances/TSP50/instance8.opt.tour
TOUR_SECTION
1
9
47
8
10
43
39
15
29
38
40
22
41
49
32
26
6
35
48
4
25
28
3
14
17
16
42
27
23
46
34
21
36
33
7
37
44
11
12
30
45
5
24
31
50
13
20
2
19
18
-1